20562.6
20458.5
20443.2
20443.2
19946.3
19946.3
19946.3
19946.3
19897.7
19885.7
19867.6
19612.2
19512.8
19512.8
19403.6
19241
19241
19231.7
19090
19090
18982.9
18982.9
18982.9
18865.6
18865.6
18546.3
18546.3
18546.3
18546.3
18516.3
18460.3
18288.4
18170.5
18170.5
18170.5
18062
18062
18062
18062
17833.6
17833.6
17833.6
17755.2
17755.2
17755.2
17491.1
17491.1
17209.6
17209.6
17209.6
17209.6
17209.6
17133.2
17133.2
17132
17132
17132
17132
17132
17129.3
17129.3
17093.4
16949.1
16847.6
16847.6
16847.6
16839.4
16699.4
16699.4
16699.4
16699.4
16699.4
16688.5
16622.3
16622.3
16594.3
16466.6
16466.6
16466.6
16466.6
16466.6
16466.6
16466.6
16265.2
16265.2
16265.2
16265.2
16265.2
16265.2
16265.2
16265.2
16265.2
16212.2
16140.3
16140.3
16140.3
16069.9
16050
16050
16028.9
